n_res = 4;
rc = [ 11, 12, 8, 11 ];
n_tasks = 30;
d = [ 8, 7, 3, 10, 5, 1, 5, 10, 8, 9, 7, 5, 9, 9, 9, 7, 6, 1, 6, 10, 10, 8, 1, 7, 7, 3, 8, 1, 2, 9 ];
rr = [| 0, 0, 0, 7, 0, 0, 0, 0, 0, 0, 2, 0, 0, 7, 10, 0, 0, 0, 9, 0, 0, 0, 0, 0, 0, 0, 0, 0, 0, 0
      | 0, 0, 3, 0, 8, 0, 0, 0, 0, 0, 0, 8, 0, 0, 0, 10, 0, 0, 0, 5, 0, 0, 1, 3, 0, 0, 0, 0, 0, 0
      | 0, 3, 0, 0, 0, 0, 0, 0, 0, 8, 0, 0, 0, 0, 0, 0, 0, 4, 0, 0, 3, 0, 0, 0, 0, 0, 7, 5, 3, 3
      | 1, 0, 0, 0, 0, 3, 3, 10, 10, 0, 0, 0, 2, 0, 0, 0, 2, 0, 0, 0, 0, 8, 0, 0, 10, 6, 0, 0, 0, 0 |];
suc = [ { 2 }, 
        { 1 }, 
        { 4 }, 
        { 3 }, 
        { 6 }, 
        { 5 }, 
        { 8 }, 
        { 7 }, 
        { 10 }, 
        { 9 }, 
        { 12 }, 
        { 11 }, 
        { 14 }, 
        { 13 }, 
        { 16 }, 
        { 15 }, 
        { 18 }, 
        { 17 }, 
        { 20 }, 
        { 19 }, 
        { 22 }, 
        { 21 }, 
        { 24 }, 
        { 23 }, 
        { 26 }, 
        { 25 }, 
        { 28 }, 
        { 27 }, 
        { 30 }, 
        { 29 }]; 
